 &CONTROL
       calculation = 'scf',
      restart_mode = 'from_scratch',
        pseudo_dir = '..',
            outdir = './tmp/',
            prefix = 'NbS2',
         verbosity = 'high',
 /
 &SYSTEM
             ibrav =0,
	 celldm(1) = 6.82,
               nat = 3,
              ntyp = 2,
       occupations = 'smearing',
          smearing = 'methfessel-paxton',
           degauss = 0.02,
           ecutwfc = 40,
           ecutrho = 720,
              nbnd = 30,
             nspin = 2,
	     starting_magnetization(1) = 0.1,
 /
 &ELECTRONS
          conv_thr = 1.0d-8,
       mixing_beta = 0.7,
 /
ATOMIC_SPECIES
Nb 92.906 Nb.pbe-spn-rrkjus_psl.1.0.0.UPF
S 32.065 S.pbe-nl-rrkjus_psl.1.0.0.UPF
CELL_PARAMETERS (alat)
   1.019703188   0.000000000  -0.000000000
  -0.509851594   0.883088865   0.000000000
   0.000000000  -0.000000000   3.029330552
ATOMIC_POSITIONS (crystal)
S             0.3333333330        0.6666666660        0.6573843129
Nb            0.6666666660        0.3333333330        0.5000000000
S             0.3333333330        0.6666666660        0.3426156871
K_POINTS (automatic)
9 9 1 0 0 0
