&projwfc
outdir='./tmp',
prefix='NbS2',
filpdos='NbS2.pdos',
/
