 &CONTROL
       calculation = 'bands',
      restart_mode = 'from_scratch',
        pseudo_dir = '..',
            outdir = './tmp/',
            prefix = 'NbS2',
         verbosity = 'high',
 /
 &SYSTEM
             ibrav = 4,
	         a = 3.32,
		 b = 20,
		 c = 20,
  	     cosab = -0.5,
	     cosac = 0,
	     cosbc = 0,
               nat = 3,
              ntyp = 2,
       occupations = 'smearing',
          smearing = 'methfessel-paxton',
           degauss = 0.02,
           ecutwfc = 35,
           ecutrho = 720,
              nbnd = 30,
             nspin = 2,
	     starting_magnetization(1) = 0.1,
 /
 &ELECTRONS
          conv_thr = 1.0d-8,
       mixing_beta = 0.7,
 /
 
ATOMIC_SPECIES
Nb 92.906 Nb.pbe-spn-rrkjus_psl.1.0.0.UPF
S 32.065 S.pbe-nl-rrkjus_psl.1.0.0.UPF
#CELL_PARAMETERS (alat)
#   0.988344223  -0.000000000  -0.000000000
#  -0.494172112   0.855931205   0.000000000
#  -0.000000000   0.000000000   3.288320764
ATOMIC_POSITIONS (crystal)
S             0.3333333330        0.6666666660        0.6332824434
Nb            0.6666666660        0.3333333330        0.5000000000
S             0.3333333330        0.6666666660        0.3667175566
K_POINTS (crystal_b)
4
0.00000 0.00000 0.00000 100 !G
0.00000 0.50000 0.00000 58 !M
0.33333 0.33333 0.0000 115 !K
0.00000 0.00000 0.00000 100 !G
